
Gurobi 11.0.1 (win64) logging started Wed Mar 20 21:01:37 2024

Set parameter LogFile to value "C:\Projetos\Job_Rotation_Algorithms\Outputs\GurobiLogs\gurobi_log-output-19_hes-c106-CostaMirallesModel-NoExtraConstraint-2.log"
Gurobi Optimizer version 11.0.1 build v11.0.1rc0 (win64 - Windows 10.0 (19045.2))

CPU model: 11th Gen Intel(R) Core(TM) i7-1165G7 @ 2.80GHz, instruction set [SSE2|AVX|AVX2|AVX512]
Thread count: 4 physical cores, 8 logical processors, using up to 1 threads

WLS license 901039 - registered to Bitka Analytics
Optimize a model with 475 rows, 898 columns and 7414 nonzeros
Model fingerprint: 0xe2ce81d4
Variable types: 2 continuous, 896 integer (896 binary)
Coefficient statistics:
  Matrix range     [1e+00, 1e+02]
  Objective range  [1e+00, 1e+00]
  Bounds range     [1e+00, 2e+02]
  RHS range        [1e+00, 2e+02]
Presolve removed 133 rows and 123 columns
Presolve time: 0.05s
Presolved: 342 rows, 775 columns, 4676 nonzeros
Variable types: 0 continuous, 775 integer (774 binary)

Root relaxation: objective 5.600000e+01, 353 iterations, 0.00 seconds (0.00 work units)

    Nodes    |    Current Node    |     Objective Bounds      |     Work
 Expl Unexpl |  Obj  Depth IntInf | Incumbent    BestBd   Gap | It/Node Time

     0     0   56.00000    0   18          -   56.00000      -     -    0s
     0     0   56.00000    0  118          -   56.00000      -     -    0s
     0     0   56.00000    0  103          -   56.00000      -     -    0s
     0     0   56.00000    0   50          -   56.00000      -     -    0s
     0     0   56.00000    0   51          -   56.00000      -     -    0s
     0     0   56.00000    0   29          -   56.00000      -     -    0s
     0     0   56.00000    0   40          -   56.00000      -     -    0s
     0     0   56.00000    0   34          -   56.00000      -     -    0s
     0     0   56.00000    0   34          -   56.00000      -     -    0s
     0     2   56.00000    0   34          -   56.00000      -     -    0s
*  524   233              33      45.0000000   56.00000  24.4%  38.6    1s
H  605   250                      46.0000000   56.00000  21.7%  41.5    1s
*  627   219              45      48.0000000   56.00000  16.7%  40.3    1s
H  631   200                      49.0000000   56.00000  14.3%  40.1    1s
H  909   286                      50.0000000   56.00000  12.0%  65.9    3s
H  917   273                      52.0000000   56.00000  7.69%  65.4    3s
H  917   253                      53.0000000   56.00000  5.66%  65.4    3s
  1137   197   54.88817   22  137   53.00000   56.00000  5.66%  80.6    5s

Cutting planes:
  Cover: 11
  Clique: 6
  MIR: 1
  StrongCG: 1
  Flow cover: 3
  GUB cover: 5
  Zero half: 1
  RLT: 2

Explored 1783 nodes (187980 simplex iterations) in 9.79 seconds (7.94 work units)
Thread count was 1 (of 8 available processors)

Solution count 7: 53 52 50 ... 45

Optimal solution found (tolerance 1.00e-03)
Best objective 5.300000000000e+01, best bound 5.300000000000e+01, gap 0.0000%
